p cnf 653 1212
33 -40 46 51 52 0
33 -40 46 51 -52 0
33 -40 46 -51 52 0
33 -40 46 -51 -52 0
-40 41 46 53 54 0
-40 41 46 53 -54 0
-40 41 46 -53 54 0
-40 41 46 -53 -54 0
-40 41 -46 55 56 0
-40 41 -46 55 -56 0
-40 41 -46 -55 56 0
-40 41 -46 -55 -56 0
3 41 42 57 58 0
3 41 42 57 -58 0
3 41 42 -57 58 0
3 41 42 -57 -58 0
-3 41 42 59 60 0
-3 41 42 59 -60 0
-3 41 42 -59 60 0
-3 41 42 -59 -60 0
-1 2 30 61 62 0
-1 2 30 61 -62 0
-1 2 30 -61 62 0
-1 2 30 -61 -62 0
-1 2 -30 63 64 0
-1 2 -30 63 -64 0
-1 2 -30 -63 64 0
-1 2 -30 -63 -64 0
-1 -2 23 65 66 0
-1 -2 23 65 -66 0
-1 -2 23 -65 66 0
-1 -2 23 -65 -66 0
-23 -42 44 67 68 0
-23 -42 44 67 -68 0
-23 -42 44 -67 68 0
-23 -42 44 -67 -68 0
13 46 48 69 70 0
13 46 48 69 -70 0
13 46 48 -69 70 0
13 46 48 -69 -70 0
1 -13 48 71 72 0
1 -13 48 71 -72 0
1 -13 48 -71 72 0
1 -13 48 -71 -72 0
4 -13 48 73 74 0
4 -13 48 73 -74 0
4 -13 48 -73 74 0
4 -13 48 -73 -74 0
-1 7 -48 75 76 0
-1 7 -48 75 -76 0
-1 7 -48 -75 76 0
-1 7 -48 -75 -76 0
4 7 -46 77 78 0
4 7 -46 77 -78 0
4 7 -46 -77 78 0
4 7 -46 -77 -78 0
-7 34 35 79 80 0
-7 34 35 79 -80 0
-7 34 35 -79 80 0
-7 34 35 -79 -80 0
4 -7 -34 81 82 0
4 -7 -34 81 -82 0
4 -7 -34 -81 82 0
4 -7 -34 -81 -82 0
-4 35 43 83 84 0
-4 35 43 83 -84 0
-4 35 43 -83 84 0
-4 35 43 -83 -84 0
-1 -4 -43 85 86 0
-1 -4 -43 85 -86 0
-1 -4 -43 -85 86 0
-1 -4 -43 -85 -86 0
6 -35 41 87 88 0
6 -35 41 87 -88 0
6 -35 41 -87 88 0
6 -35 41 -87 -88 0
-1 -6 -35 89 90 0
-1 -6 -35 89 -90 0
-1 -6 -35 -89 90 0
-1 -6 -35 -89 -90 0
34 -40 -41 91 92 0
34 -40 -41 91 -92 0
34 -40 -41 -91 92 0
34 -40 -41 -91 -92 0
23 -34 -41 93 94 0
23 -34 -41 93 -94 0
23 -34 -41 -93 94 0
23 -34 -41 -93 -94 0
-23 35 -40 95 96 0
-23 35 -40 95 -96 0
-23 35 -40 -95 96 0
-23 35 -40 -95 -96 0
-35 -40 42 97 98 0
-35 -40 42 97 -98 0
-35 -40 42 -97 98 0
-35 -40 42 -97 -98 0
-35 -41 -42 99 100 0
-35 -41 -42 99 -100 0
-35 -41 -42 -99 100 0
-35 -41 -42 -99 -100 0
-10 20 40 101 102 0
-10 20 40 101 -102 0
-10 20 40 -101 102 0
-10 20 40 -101 -102 0
3 -10 34 103 104 0
3 -10 34 103 -104 0
3 -10 34 -103 104 0
3 -10 34 -103 -104 0
-10 -34 40 105 106 0
-10 -34 40 105 -106 0
-10 -34 40 -105 106 0
-10 -34 40 -105 -106 0
-3 -10 -20 107 108 0
-3 -10 -20 107 -108 0
-3 -10 -20 -107 108 0
-3 -10 -20 -107 -108 0
15 49 50 109 110 0
15 49 50 109 -110 0
15 49 50 -109 110 0
15 49 50 -109 -110 0
-15 49 50 111 112 0
-15 49 50 111 -112 0
-15 49 50 -111 112 0
-15 49 50 -111 -112 0
14 -22 44 113 114 0
14 -22 44 113 -114 0
14 -22 44 -113 114 0
14 -22 44 -113 -114 0
-26 27 41 115 116 0
-26 27 41 115 -116 0
-26 27 41 -115 116 0
-26 27 41 -115 -116 0
14 -26 -41 117 118 0
14 -26 -41 117 -118 0
14 -26 -41 -117 118 0
14 -26 -41 -117 -118 0
-14 -22 27 119 120 0
-14 -22 27 119 -120 0
-14 -22 27 -119 120 0
-14 -22 27 -119 -120 0
27 44 -49 121 122 0
27 44 -49 121 -122 0
27 44 -49 -121 122 0
27 44 -49 -121 -122 0
12 15 26 123 124 0
12 15 26 123 -124 0
12 15 26 -123 124 0
12 15 26 -123 -124 0
15 -26 -27 125 126 0
15 -26 -27 125 -126 0
15 -26 -27 -125 126 0
15 -26 -27 -125 -126 0
10 15 -27 127 128 0
10 15 -27 127 -128 0
10 15 -27 -127 128 0
10 15 -27 -127 -128 0
-27 28 44 129 130 0
-27 28 44 129 -130 0
-27 28 44 -129 130 0
-27 28 44 -129 -130 0
-15 -27 44 131 132 0
-15 -27 44 131 -132 0
-15 -27 44 -131 132 0
-15 -27 44 -131 -132 0
10 -28 44 133 134 0
10 -28 44 133 -134 0
10 -28 44 -133 134 0
10 -28 44 -133 -134 0
26 -28 32 135 136 0
26 -28 32 135 -136 0
26 -28 32 -135 136 0
26 -28 32 -135 -136 0
8 26 -28 137 138 0
8 26 -28 137 -138 0
8 26 -28 -137 138 0
8 26 -28 -137 -138 0
15 -28 -44 139 140 0
15 -28 -44 139 -140 0
15 -28 -44 -139 140 0
15 -28 -44 -139 -140 0
-15 -26 -44 141 142 0
-15 -26 -44 141 -142 0
-15 -26 -44 -141 142 0
-15 -26 -44 -141 -142 0
-8 -28 -44 143 144 0
-8 -28 -44 143 -144 0
-8 -28 -44 -143 144 0
-8 -28 -44 -143 -144 0
25 28 50 145 146 0
25 28 50 145 -146 0
25 28 50 -145 146 0
25 28 50 -145 -146 0
19 40 50 147 148 0
19 40 50 147 -148 0
19 40 50 -147 148 0
19 40 50 -147 -148 0
-19 28 45 149 150 0
-19 28 45 149 -150 0
-19 28 45 -149 150 0
-19 28 45 -149 -150 0
28 40 -45 151 152 0
28 40 -45 151 -152 0
28 40 -45 -151 152 0
28 40 -45 -151 -152 0
1 -32 37 153 154 0
1 -32 37 153 -154 0
1 -32 37 -153 154 0
1 -32 37 -153 -154 0
-1 -32 47 155 156 0
-1 -32 47 155 -156 0
-1 -32 47 -155 156 0
-1 -32 47 -155 -156 0
22 37 -47 157 158 0
22 37 -47 157 -158 0
22 37 -47 -157 158 0
22 37 -47 -157 -158 0
22 24 -37 159 160 0
22 24 -37 159 -160 0
22 24 -37 -159 160 0
22 24 -37 -159 -160 0
24 39 50 161 162 0
24 39 50 161 -162 0
24 39 50 -161 162 0
24 39 50 -161 -162 0
24 -39 50 163 164 0
24 -39 50 163 -164 0
24 -39 50 -163 164 0
24 -39 50 -163 -164 0
24 -26 28 165 166 0
24 -26 28 165 -166 0
24 -26 28 -165 166 0
24 -26 28 -165 -166 0
-24 28 -32 167 168 0
-24 28 -32 167 -168 0
-24 28 -32 -167 168 0
-24 28 -32 -167 -168 0
5 20 31 169 170 0
5 20 31 169 -170 0
5 20 31 -169 170 0
5 20 31 -169 -170 0
11 20 -27 171 172 0
11 20 -27 171 -172 0
11 20 -27 -171 172 0
11 20 -27 -171 -172 0
-5 11 20 173 174 0
-5 11 20 173 -174 0
-5 11 20 -173 174 0
-5 11 20 -173 -174 0
10 11 31 175 176 0
10 11 31 175 -176 0
10 11 31 -175 176 0
10 11 31 -175 -176 0
11 31 -46 177 178 0
11 31 -46 177 -178 0
11 31 -46 -177 178 0
11 31 -46 -177 -178 0
10 11 -31 179 180 0
10 11 -31 179 -180 0
10 11 -31 -179 180 0
10 11 -31 -179 -180 0
8 19 -44 181 182 0
8 19 -44 181 -182 0
8 19 -44 -181 182 0
8 19 -44 -181 -182 0
-8 19 20 183 184 0
-8 19 20 183 -184 0
-8 19 20 -183 184 0
-8 19 20 -183 -184 0
20 35 40 185 186 0
20 35 40 185 -186 0
20 35 40 -185 186 0
20 35 40 -185 -186 0
5 20 40 187 188 0
5 20 40 187 -188 0
5 20 40 -187 188 0
5 20 40 -187 -188 0
-5 22 33 189 190 0
-5 22 33 189 -190 0
-5 22 33 -189 190 0
-5 22 33 -189 -190 0
-5 -22 33 191 192 0
-5 -22 33 191 -192 0
-5 -22 33 -191 192 0
-5 -22 33 -191 -192 0
-5 -33 40 193 194 0
-5 -33 40 193 -194 0
-5 -33 40 -193 194 0
-5 -33 40 -193 -194 0
8 42 -44 195 196 0
8 42 -44 195 -196 0
8 42 -44 -195 196 0
8 42 -44 -195 -196 0
8 37 -44 197 198 0
8 37 -44 197 -198 0
8 37 -44 -197 198 0
8 37 -44 -197 -198 0
2 8 12 199 200 0
2 8 12 199 -200 0
2 8 12 -199 200 0
2 8 12 -199 -200 0
8 -12 25 201 202 0
8 -12 25 201 -202 0
8 -12 25 -201 202 0
8 -12 25 -201 -202 0
8 -12 -49 203 204 0
8 -12 -49 203 -204 0
8 -12 -49 -203 204 0
8 -12 -49 -203 -204 0
2 -25 49 205 206 0
2 -25 49 205 -206 0
2 -25 49 -205 206 0
2 -25 49 -205 -206 0
-11 19 -37 207 208 0
-11 19 -37 207 -208 0
-11 19 -37 -207 208 0
-11 19 -37 -207 -208 0
2 -11 -19 209 210 0
2 -11 -19 209 -210 0
2 -11 -19 -209 210 0
2 -11 -19 -209 -210 0
-2 8 -11 211 212 0
-2 8 -11 211 -212 0
-2 8 -11 -211 212 0
-2 8 -11 -211 -212 0
-2 -11 -18 213 214 0
-2 -11 -18 213 -214 0
-2 -11 -18 -213 214 0
-2 -11 -18 -213 -214 0
-2 8 17 215 216 0
-2 8 17 215 -216 0
-2 8 17 -215 216 0
-2 8 17 -215 -216 0
-2 -19 49 217 218 0
-2 -19 49 217 -218 0
-2 -19 49 -217 218 0
-2 -19 49 -217 -218 0
-2 -19 -49 219 220 0
-2 -19 -49 219 -220 0
-2 -19 -49 -219 220 0
-2 -19 -49 -219 -220 0
3 -20 30 221 222 0
3 -20 30 221 -222 0
3 -20 30 -221 222 0
3 -20 30 -221 -222 0
-20 30 -33 223 224 0
-20 30 -33 223 -224 0
-20 30 -33 -223 224 0
-20 30 -33 -223 -224 0
25 -30 -33 225 226 0
25 -30 -33 225 -226 0
25 -30 -33 -225 226 0
25 -30 -33 -225 -226 0
-25 -33 46 227 228 0
-25 -33 46 227 -228 0
-25 -33 46 -227 228 0
-25 -33 46 -227 -228 0
-4 -33 46 229 230 0
-4 -33 46 229 -230 0
-4 -33 46 -229 230 0
-4 -33 46 -229 -230 0
3 -44 -46 231 232 0
3 -44 -46 231 -232 0
3 -44 -46 -231 232 0
3 -44 -46 -231 -232 0
-3 -30 -46 233 234 0
-3 -30 -46 233 -234 0
-3 -30 -46 -233 234 0
-3 -30 -46 -233 -234 0
3 35 -50 235 236 0
3 35 -50 235 -236 0
3 35 -50 -235 236 0
3 35 -50 -235 -236 0
-3 25 -50 237 238 0
-3 25 -50 237 -238 0
-3 25 -50 -237 238 0
-3 25 -50 -237 -238 0
27 29 -50 239 240 0
27 29 -50 239 -240 0
27 29 -50 -239 240 0
27 29 -50 -239 -240 0
-11 27 -50 241 242 0
-11 27 -50 241 -242 0
-11 27 -50 -241 242 0
-11 27 -50 -241 -242 0
12 -27 35 243 244 0
12 -27 35 243 -244 0
12 -27 35 -243 244 0
12 -27 35 -243 -244 0
7 -12 35 245 246 0
7 -12 35 245 -246 0
7 -12 35 -245 246 0
7 -12 35 -245 -246 0
9 28 -50 247 248 0
9 28 -50 247 -248 0
9 28 -50 -247 248 0
9 28 -50 -247 -248 0
-9 28 -35 249 250 0
-9 28 -35 249 -250 0
-9 28 -35 -249 250 0
-9 28 -35 -249 -250 0
-9 -47 -50 251 252 0
-9 -47 -50 251 -252 0
-9 -47 -50 -251 252 0
-9 -47 -50 -251 -252 0
-28 33 39 253 254 0
-28 33 39 253 -254 0
-28 33 39 -253 254 0
-28 33 39 -253 -254 0
-11 -12 -28 255 256 0
-11 -12 -28 255 -256 0
-11 -12 -28 -255 256 0
-11 -12 -28 -255 -256 0
13 15 -33 257 258 0
13 15 -33 257 -258 0
13 15 -33 -257 258 0
13 15 -33 -257 -258 0
-15 -35 39 259 260 0
-15 -35 39 259 -260 0
-15 -35 39 -259 260 0
-15 -35 39 -259 -260 0
10 13 -50 261 262 0
10 13 -50 261 -262 0
10 13 -50 -261 262 0
10 13 -50 -261 -262 0
-7 -10 13 263 264 0
-7 -10 13 263 -264 0
-7 -10 13 -263 264 0
-7 -10 13 -263 -264 0
-7 13 -32 265 266 0
-7 13 -32 265 -266 0
-7 13 -32 -265 266 0
-7 13 -32 -265 -266 0
-13 39 -50 267 268 0
-13 39 -50 267 -268 0
-13 39 -50 -267 268 0
-13 39 -50 -267 -268 0
4 10 25 269 270 0
4 10 25 269 -270 0
4 10 25 -269 270 0
4 10 25 -269 -270 0
4 10 33 271 272 0
4 10 33 271 -272 0
4 10 33 -271 272 0
4 10 33 -271 -272 0
-4 24 25 273 274 0
-4 24 25 273 -274 0
-4 24 25 -273 274 0
-4 24 25 -273 -274 0
-4 31 33 275 276 0
-4 31 33 275 -276 0
-4 31 33 -275 276 0
-4 31 33 -275 -276 0
-4 25 -31 277 278 0
-4 25 -31 277 -278 0
-4 25 -31 -277 278 0
-4 25 -31 -277 -278 0
-5 -8 -20 279 280 0
-5 -8 -20 279 -280 0
-5 -8 -20 -279 280 0
-5 -8 -20 -279 -280 0
5 33 -45 281 282 0
5 33 -45 281 -282 0
5 33 -45 -281 282 0
5 33 -45 -281 -282 0
36 38 45 283 284 0
36 38 45 283 -284 0
36 38 45 -283 284 0
36 38 45 -283 -284 0
12 36 45 285 286 0
12 36 45 285 -286 0
12 36 45 -285 286 0
12 36 45 -285 -286 0
-25 36 45 287 288 0
-25 36 45 287 -288 0
-25 36 45 -287 288 0
-25 36 45 -287 -288 0
-12 36 -47 289 290 0
-12 36 -47 289 -290 0
-12 36 -47 -289 290 0
-12 36 -47 -289 -290 0
-36 38 47 291 292 0
-36 38 47 291 -292 0
-36 38 47 -291 292 0
-36 38 47 -291 -292 0
-36 38 48 293 294 0
-36 38 48 293 -294 0
-36 38 48 -293 294 0
-36 38 48 -293 -294 0
16 18 -48 295 296 0
16 18 -48 295 -296 0
16 18 -48 -295 296 0
16 18 -48 -295 -296 0
-16 38 -48 297 298 0
-16 38 -48 297 -298 0
-16 38 -48 -297 298 0
-16 38 -48 -297 -298 0
5 11 -18 299 300 0
5 11 -18 299 -300 0
5 11 -18 -299 300 0
5 11 -18 -299 -300 0
5 -11 -18 301 302 0
5 -11 -18 301 -302 0
5 -11 -18 -301 302 0
5 -11 -18 -301 -302 0
-22 24 -38 303 304 0
-22 24 -38 303 -304 0
-22 24 -38 -303 304 0
-22 24 -38 -303 -304 0
-20 -24 49 305 306 0
-20 -24 49 305 -306 0
-20 -24 49 -305 306 0
-20 -24 49 -305 -306 0
-20 -24 -49 307 308 0
-20 -24 -49 307 -308 0
-20 -24 -49 -307 308 0
-20 -24 -49 -307 -308 0
-14 23 -38 309 310 0
-14 23 -38 309 -310 0
-14 23 -38 -309 310 0
-14 23 -38 -309 -310 0
-14 23 33 311 312 0
-14 23 33 311 -312 0
-14 23 33 -311 312 0
-14 23 33 -311 -312 0
-14 -23 -38 313 314 0
-14 -23 -38 313 -314 0
-14 -23 -38 -313 314 0
-14 -23 -38 -313 -314 0
-20 34 37 315 316 0
-20 34 37 315 -316 0
-20 34 37 -315 316 0
-20 34 37 -315 -316 0
-34 37 48 317 318 0
-34 37 48 317 -318 0
-34 37 48 -317 318 0
-34 37 48 -317 -318 0
7 -20 -30 319 320 0
7 -20 -30 319 -320 0
7 -20 -30 -319 320 0
7 -20 -30 -319 -320 0
-7 23 -33 321 322 0
-7 23 -33 321 -322 0
-7 23 -33 -321 322 0
-7 23 -33 -321 -322 0
-7 -22 -23 323 324 0
-7 -22 -23 323 -324 0
-7 -22 -23 -323 324 0
-7 -22 -23 -323 -324 0
-22 -33 -37 325 326 0
-22 -33 -37 325 -326 0
-22 -33 -37 -325 326 0
-22 -33 -37 -325 -326 0
9 45 -47 327 328 0
9 45 -47 327 -328 0
9 45 -47 -327 328 0
9 45 -47 -327 -328 0
-9 -38 -47 329 330 0
-9 -38 -47 329 -330 0
-9 -38 -47 -329 330 0
-9 -38 -47 -329 -330 0
-39 -45 -47 331 332 0
-39 -45 -47 331 -332 0
-39 -45 -47 -331 332 0
-39 -45 -47 -331 -332 0
-28 -45 -47 333 334 0
-28 -45 -47 333 -334 0
-28 -45 -47 -333 334 0
-28 -45 -47 -333 -334 0
3 14 22 335 336 0
3 14 22 335 -336 0
3 14 22 -335 336 0
3 14 22 -335 -336 0
3 22 47 337 338 0
3 22 47 337 -338 0
3 22 47 -337 338 0
3 22 47 -337 -338 0
-14 -31 47 339 340 0
-14 -31 47 339 -340 0
-14 -31 47 -339 340 0
-14 -31 47 -339 -340 0
-3 4 23 341 342 0
-3 4 23 341 -342 0
-3 4 23 -341 342 0
-3 4 23 -341 -342 0
-3 23 -37 343 344 0
-3 23 -37 343 -344 0
-3 23 -37 -343 344 0
-3 23 -37 -343 -344 0
4 -23 37 345 346 0
4 -23 37 345 -346 0
4 -23 37 -345 346 0
4 -23 37 -345 -346 0
4 22 -37 347 348 0
4 22 -37 347 -348 0
4 22 -37 -347 348 0
4 22 -37 -347 -348 0
-25 -32 -39 349 350 0
-25 -32 -39 349 -350 0
-25 -32 -39 -349 350 0
-25 -32 -39 -349 -350 0
-32 -39 48 351 352 0
-32 -39 48 351 -352 0
-32 -39 48 -351 352 0
-32 -39 48 -351 -352 0
-29 -32 46 353 354 0
-29 -32 46 353 -354 0
-29 -32 46 -353 354 0
-29 -32 46 -353 -354 0
2 -32 -46 355 356 0
2 -32 -46 355 -356 0
2 -32 -46 -355 356 0
2 -32 -46 -355 -356 0
-2 -46 -48 357 358 0
-2 -46 -48 357 -358 0
-2 -46 -48 -357 358 0
-2 -46 -48 -357 -358 0
7 -25 50 359 360 0
7 -25 50 359 -360 0
7 -25 50 -359 360 0
7 -25 50 -359 -360 0
5 -25 31 361 362 0
5 -25 31 361 -362 0
5 -25 31 -361 362 0
5 -25 31 -361 -362 0
7 -25 -31 363 364 0
7 -25 -31 363 -364 0
7 -25 -31 -363 364 0
7 -25 -31 -363 -364 0
5 7 -50 365 366 0
5 7 -50 365 -366 0
5 7 -50 -365 366 0
5 7 -50 -365 -366 0
17 -36 -38 367 368 0
17 -36 -38 367 -368 0
17 -36 -38 -367 368 0
17 -36 -38 -367 -368 0
17 -36 -39 369 370 0
17 -36 -39 369 -370 0
17 -36 -39 -369 370 0
17 -36 -39 -369 -370 0
-17 19 48 371 372 0
-17 19 48 371 -372 0
-17 19 48 -371 372 0
-17 19 48 -371 -372 0
-5 -17 -36 373 374 0
-5 -17 -36 373 -374 0
-5 -17 -36 -373 374 0
-5 -17 -36 -373 -374 0
-17 -27 48 375 376 0
-17 -27 48 375 -376 0
-17 -27 48 -375 376 0
-17 -27 48 -375 -376 0
-17 -19 -36 377 378 0
-17 -19 -36 377 -378 0
-17 -19 -36 -377 378 0
-17 -19 -36 -377 -378 0
-17 -18 -38 379 380 0
-17 -18 -38 379 -380 0
-17 -18 -38 -379 380 0
-17 -18 -38 -379 -380 0
-4 -17 48 381 382 0
-4 -17 48 381 -382 0
-4 -17 48 -381 382 0
-4 -17 48 -381 -382 0
6 -17 -48 383 384 0
6 -17 -48 383 -384 0
6 -17 -48 -383 384 0
6 -17 -48 -383 -384 0
7 32 39 385 386 0
7 32 39 385 -386 0
7 32 39 -385 386 0
7 32 39 -385 -386 0
-7 32 39 387 388 0
-7 32 39 387 -388 0
-7 32 39 -387 388 0
-7 32 39 -387 -388 0
3 10 -39 389 390 0
3 10 -39 389 -390 0
3 10 -39 -389 390 0
3 10 -39 -389 -390 0
-10 32 -39 391 392 0
-10 32 -39 391 -392 0
-10 32 -39 -391 392 0
-10 32 -39 -391 -392 0
22 44 49 393 394 0
22 44 49 393 -394 0
22 44 49 -393 394 0
22 44 49 -393 -394 0
-22 44 49 395 396 0
-22 44 49 395 -396 0
-22 44 49 -395 396 0
-22 44 49 -395 -396 0
3 -6 43 397 398 0
3 -6 43 397 -398 0
3 -6 43 -397 398 0
3 -6 43 -397 -398 0
-6 28 43 399 400 0
-6 28 43 399 -400 0
-6 28 43 -399 400 0
-6 28 43 -399 -400 0
-3 -6 -28 401 402 0
-3 -6 -28 401 -402 0
-3 -6 -28 -401 402 0
-3 -6 -28 -401 -402 0
-43 47 49 403 404 0
-43 47 49 403 -404 0
-43 47 49 -403 404 0
-43 47 49 -403 -404 0
-3 16 45 405 406 0
-3 16 45 405 -406 0
-3 16 45 -405 406 0
-3 16 45 -405 -406 0
-3 16 -45 407 408 0
-3 16 -45 407 -408 0
-3 16 -45 -407 408 0
-3 16 -45 -407 -408 0
16 -27 -45 409 410 0
16 -27 -45 409 -410 0
16 -27 -45 -409 410 0
16 -27 -45 -409 -410 0
25 32 42 411 412 0
25 32 42 411 -412 0
25 32 42 -411 412 0
25 32 42 -411 -412 0
-25 32 42 413 414 0
-25 32 42 413 -414 0
-25 32 42 -413 414 0
-25 32 42 -413 -414 0
32 39 42 415 416 0
32 39 42 415 -416 0
32 39 42 -415 416 0
32 39 42 -415 -416 0
-16 41 42 417 418 0
-16 41 42 417 -418 0
-16 41 42 -417 418 0
-16 41 42 -417 -418 0
-16 32 -41 419 420 0
-16 32 -41 419 -420 0
-16 32 -41 -419 420 0
-16 32 -41 -419 -420 0
9 12 40 421 422 0
9 12 40 421 -422 0
9 12 40 -421 422 0
9 12 40 -421 -422 0
9 10 -48 423 424 0
9 10 -48 423 -424 0
9 10 -48 -423 424 0
9 10 -48 -423 -424 0
9 -10 -48 425 426 0
9 -10 -48 425 -426 0
9 -10 -48 -425 426 0
9 -10 -48 -425 -426 0
-9 29 34 427 428 0
-9 29 34 427 -428 0
-9 29 34 -427 428 0
-9 29 34 -427 -428 0
-12 34 -48 429 430 0
-12 34 -48 429 -430 0
-12 34 -48 -429 430 0
-12 34 -48 -429 -430 0
-8 -12 34 431 432 0
-8 -12 34 431 -432 0
-8 -12 34 -431 432 0
-8 -12 34 -431 -432 0
-6 9 -48 433 434 0
-6 9 -48 433 -434 0
-6 9 -48 -433 434 0
-6 9 -48 -433 -434 0
-9 29 -34 435 436 0
-9 29 -34 435 -436 0
-9 29 -34 -435 436 0
-9 29 -34 -435 -436 0
5 -6 15 437 438 0
5 -6 15 437 -438 0
5 -6 15 -437 438 0
5 -6 15 -437 -438 0
-5 15 16 439 440 0
-5 15 16 439 -440 0
-5 15 16 -439 440 0
-5 15 16 -439 -440 0
15 -16 -29 441 442 0
15 -16 -29 441 -442 0
15 -16 -29 -441 442 0
15 -16 -29 -441 -442 0
-1 16 -49 443 444 0
-1 16 -49 443 -444 0
-1 16 -49 -443 444 0
-1 16 -49 -443 -444 0
-6 11 -49 445 446 0
-6 11 -49 445 -446 0
-6 11 -49 -445 446 0
-6 11 -49 -445 -446 0
-1 -6 -49 447 448 0
-1 -6 -49 447 -448 0
-1 -6 -49 -447 448 0
-1 -6 -49 -447 -448 0
1 24 -30 449 450 0
1 24 -30 449 -450 0
1 24 -30 -449 450 0
1 24 -30 -449 -450 0
1 -24 -30 451 452 0
1 -24 -30 451 -452 0
1 -24 -30 -451 452 0
1 -24 -30 -451 -452 0
6 -16 19 453 454 0
6 -16 19 453 -454 0
6 -16 19 -453 454 0
6 -16 19 -453 -454 0
6 -16 23 455 456 0
6 -16 23 455 -456 0
6 -16 23 -455 456 0
6 -16 23 -455 -456 0
-19 32 38 457 458 0
-19 32 38 457 -458 0
-19 32 38 -457 458 0
-19 32 38 -457 -458 0
23 38 40 459 460 0
23 38 40 459 -460 0
23 38 40 -459 460 0
23 38 40 -459 -460 0
-19 -32 -40 461 462 0
-19 -32 -40 461 -462 0
-19 -32 -40 -461 462 0
-19 -32 -40 -461 -462 0
6 -19 -38 463 464 0
6 -19 -38 463 -464 0
6 -19 -38 -463 464 0
6 -19 -38 -463 -464 0
1 -16 46 465 466 0
1 -16 46 465 -466 0
1 -16 46 -465 466 0
1 -16 46 -465 -466 0
-16 -23 -49 467 468 0
-16 -23 -49 467 -468 0
-16 -23 -49 -467 468 0
-16 -23 -49 -467 -468 0
-8 21 46 469 470 0
-8 21 46 469 -470 0
-8 21 46 -469 470 0
-8 21 46 -469 -470 0
1 -8 -21 471 472 0
1 -8 -21 471 -472 0
1 -8 -21 -471 472 0
1 -8 -21 -471 -472 0
1 21 -30 473 474 0
1 21 -30 473 -474 0
1 21 -30 -473 474 0
1 21 -30 -473 -474 0
-21 -30 47 475 476 0
-21 -30 47 475 -476 0
-21 -30 47 -475 476 0
-21 -30 47 -475 -476 0
1 -30 -47 477 478 0
1 -30 -47 477 -478 0
1 -30 -47 -477 478 0
1 -30 -47 -477 -478 0
27 -29 -42 479 480 0
27 -29 -42 479 -480 0
27 -29 -42 -479 480 0
27 -29 -42 -479 -480 0
4 18 -29 481 482 0
4 18 -29 481 -482 0
4 18 -29 -481 482 0
4 18 -29 -481 -482 0
-4 18 -24 483 484 0
-4 18 -24 483 -484 0
-4 18 -24 -483 484 0
-4 18 -24 -483 -484 0
18 -41 -42 485 486 0
18 -41 -42 485 -486 0
18 -41 -42 -485 486 0
18 -41 -42 -485 -486 0
-18 -29 43 487 488 0
-18 -29 43 487 -488 0
-18 -29 43 -487 488 0
-18 -29 43 -487 -488 0
-24 -29 -43 489 490 0
-24 -29 -43 489 -490 0
-24 -29 -43 -489 490 0
-24 -29 -43 -489 -490 0
-10 -18 -42 491 492 0
-10 -18 -42 491 -492 0
-10 -18 -42 -491 492 0
-10 -18 -42 -491 -492 0
-24 -40 41 493 494 0
-24 -40 41 493 -494 0
-24 -40 41 -493 494 0
-24 -40 41 -493 -494 0
-24 -40 -41 495 496 0
-24 -40 -41 495 -496 0
-24 -40 -41 -495 496 0
-24 -40 -41 -495 -496 0
-15 -16 46 497 498 0
-15 -16 46 497 -498 0
-15 -16 46 -497 498 0
-15 -16 46 -497 -498 0
5 -15 49 499 500 0
5 -15 49 499 -500 0
5 -15 49 -499 500 0
5 -15 49 -499 -500 0
-5 -15 43 501 502 0
-5 -15 43 501 -502 0
-5 -15 43 -501 502 0
-5 -15 43 -501 -502 0
29 31 -43 503 504 0
29 31 -43 503 -504 0
29 31 -43 -503 504 0
29 31 -43 -503 -504 0
-15 31 -49 505 506 0
-15 31 -49 505 -506 0
-15 31 -49 -505 506 0
-15 31 -49 -505 -506 0
18 -29 31 507 508 0
18 -29 31 507 -508 0
18 -29 31 -507 508 0
18 -29 31 -507 -508 0
-18 -29 31 509 510 0
-18 -29 31 509 -510 0
-18 -29 31 -509 510 0
-18 -29 31 -509 -510 0
25 -42 43 511 512 0
25 -42 43 511 -512 0
25 -42 43 -511 512 0
25 -42 43 -511 -512 0
17 -42 43 513 514 0
17 -42 43 513 -514 0
17 -42 43 -513 514 0
17 -42 43 -513 -514 0
-17 -42 43 515 516 0
-17 -42 43 515 -516 0
-17 -42 43 -515 516 0
-17 -42 43 -515 -516 0
30 42 50 517 518 0
30 42 50 517 -518 0
30 42 50 -517 518 0
30 42 50 -517 -518 0
-14 30 50 519 520 0
-14 30 50 519 -520 0
-14 30 50 -519 520 0
-14 30 50 -519 -520 0
-14 18 30 521 522 0
-14 18 30 521 -522 0
-14 18 30 -521 522 0
-14 18 30 -521 -522 0
-14 -18 30 523 524 0
-14 -18 30 523 -524 0
-14 -18 30 -523 524 0
-14 -18 30 -523 -524 0
11 33 -43 525 526 0
11 33 -43 525 -526 0
11 33 -43 -525 526 0
11 33 -43 -525 -526 0
9 -26 -43 527 528 0
9 -26 -43 527 -528 0
9 -26 -43 -527 528 0
9 -26 -43 -527 -528 0
-9 -26 -43 529 530 0
-9 -26 -43 529 -530 0
-9 -26 -43 -529 530 0
-9 -26 -43 -529 -530 0
11 -26 -33 531 532 0
11 -26 -33 531 -532 0
11 -26 -33 -531 532 0
11 -26 -33 -531 -532 0
-11 -26 -43 533 534 0
-11 -26 -43 533 -534 0
-11 -26 -43 -533 534 0
-11 -26 -43 -533 -534 0
13 18 22 535 536 0
13 18 22 535 -536 0
13 18 22 -535 536 0
13 18 22 -535 -536 0
13 -18 30 537 538 0
13 -18 30 537 -538 0
13 -18 30 -537 538 0
13 -18 30 -537 -538 0
13 -15 30 539 540 0
13 -15 30 539 -540 0
13 -15 30 -539 540 0
13 -15 30 -539 -540 0
6 13 -37 541 542 0
6 13 -37 541 -542 0
6 13 -37 -541 542 0
6 13 -37 -541 -542 0
-13 26 -37 543 544 0
-13 26 -37 543 -544 0
-13 26 -37 -543 544 0
-13 26 -37 -543 -544 0
24 26 -37 545 546 0
24 26 -37 545 -546 0
24 26 -37 -545 546 0
24 26 -37 -545 -546 0
-6 -24 -37 547 548 0
-6 -24 -37 547 -548 0
-6 -24 -37 -547 548 0
-6 -24 -37 -547 -548 0
-2 26 37 549 550 0
-2 26 37 549 -550 0
-2 26 37 -549 550 0
-2 26 37 -549 -550 0
21 -31 36 551 552 0
21 -31 36 551 -552 0
21 -31 36 -551 552 0
21 -31 36 -551 -552 0
6 21 -36 553 554 0
6 21 -36 553 -554 0
6 21 -36 -553 554 0
6 21 -36 -553 -554 0
-31 -36 -41 555 556 0
-31 -36 -41 555 -556 0
-31 -36 -41 -555 556 0
-31 -36 -41 -555 -556 0
-10 -31 -36 557 558 0
-10 -31 -36 557 -558 0
-10 -31 -36 -557 558 0
-10 -31 -36 -557 -558 0
-21 -31 38 559 560 0
-21 -31 38 559 -560 0
-21 -31 38 -559 560 0
-21 -31 38 -559 -560 0
-21 -31 -38 561 562 0
-21 -31 -38 561 -562 0
-21 -31 -38 -561 562 0
-21 -31 -38 -561 -562 0
22 37 39 563 564 0
22 37 39 563 -564 0
22 37 39 -563 564 0
22 37 39 -563 -564 0
6 26 -39 565 566 0
6 26 -39 565 -566 0
6 26 -39 -565 566 0
6 26 -39 -565 -566 0
6 -22 26 567 568 0
6 -22 26 567 -568 0
6 -22 26 -567 568 0
6 -22 26 -567 -568 0
-35 41 45 569 570 0
-35 41 45 569 -570 0
-35 41 45 -569 570 0
-35 41 45 -569 -570 0
-35 -41 45 571 572 0
-35 -41 45 571 -572 0
-35 -41 45 -571 572 0
-35 -41 45 -571 -572 0
20 -35 -45 573 574 0
20 -35 -45 573 -574 0
20 -35 -45 -573 574 0
20 -35 -45 -573 -574 0
-20 44 -45 575 576 0
-20 44 -45 575 -576 0
-20 44 -45 -575 576 0
-20 44 -45 -575 -576 0
26 -44 -45 577 578 0
26 -44 -45 577 -578 0
26 -44 -45 -577 578 0
26 -44 -45 -577 -578 0
29 38 47 579 580 0
29 38 47 579 -580 0
29 38 47 -579 580 0
29 38 47 -579 -580 0
29 39 47 581 582 0
29 39 47 581 -582 0
29 39 47 -581 582 0
29 39 47 -581 -582 0
29 -39 47 583 584 0
29 -39 47 583 -584 0
29 -39 47 -583 584 0
29 -39 47 -583 -584 0
-7 27 29 585 586 0
-7 27 29 585 -586 0
-7 27 29 -585 586 0
-7 27 29 -585 -586 0
27 29 -47 587 588 0
27 29 -47 587 -588 0
27 29 -47 -587 588 0
27 29 -47 -587 -588 0
2 14 38 589 590 0
2 14 38 589 -590 0
2 14 38 -589 590 0
2 14 38 -589 -590 0
7 14 -38 591 592 0
7 14 -38 591 -592 0
7 14 -38 -591 592 0
7 14 -38 -591 -592 0
-7 14 27 593 594 0
-7 14 27 593 -594 0
-7 14 27 -593 594 0
-7 14 27 -593 -594 0
2 9 -27 595 596 0
2 9 -27 595 -596 0
2 9 -27 -595 596 0
2 9 -27 -595 -596 0
14 34 37 597 598 0
14 34 37 597 -598 0
14 34 37 -597 598 0
14 34 37 -597 -598 0
-5 14 34 599 600 0
-5 14 34 599 -600 0
-5 14 34 -599 600 0
-5 14 34 -599 -600 0
2 -23 35 601 602 0
2 -23 35 601 -602 0
2 -23 35 -601 602 0
2 -23 35 -601 -602 0
-9 12 -21 603 604 0
-9 12 -21 603 -604 0
-9 12 -21 -603 604 0
-9 12 -21 -603 -604 0
-9 -12 -21 605 606 0
-9 -12 -21 605 -606 0
-9 -12 -21 -605 606 0
-9 -12 -21 -605 -606 0
-19 21 35 607 608 0
-19 21 35 607 -608 0
-19 21 35 -607 608 0
-19 21 35 -607 -608 0
12 19 -34 609 610 0
12 19 -34 609 -610 0
12 19 -34 -609 610 0
12 19 -34 -609 -610 0
14 19 -22 611 612 0
14 19 -22 611 -612 0
14 19 -22 -611 612 0
14 19 -22 -611 -612 0
12 -34 43 613 614 0
12 -34 43 613 -614 0
12 -34 43 -613 614 0
12 -34 43 -613 -614 0
-13 20 -29 615 616 0
-13 20 -29 615 -616 0
-13 20 -29 -615 616 0
-13 20 -29 -615 -616 0
9 -9 17 617 618 0
9 -9 17 617 -618 0
9 -9 17 -617 618 0
9 -9 17 -617 -618 0
-4 16 -42 619 620 0
-4 16 -42 619 -620 0
-4 16 -42 -619 620 0
-4 16 -42 -619 -620 0
17 -17 36 621 622 0
17 -17 36 621 -622 0
17 -17 36 -621 622 0
17 -17 36 -621 -622 0
-11 18 -21 623 624 0
-11 18 -21 623 -624 0
-11 18 -21 -623 624 0
-11 18 -21 -623 -624 0
-12 -25 36 625 626 0
-12 -25 36 625 -626 0
-12 -25 36 -625 626 0
-12 -25 36 -625 -626 0
21 24 36 627 628 0
21 24 36 627 -628 0
21 24 36 -627 628 0
21 24 36 -627 -628 0
1 -8 -23 629 630 0
1 -8 -23 629 -630 0
1 -8 -23 -629 630 0
1 -8 -23 -629 -630 0
21 -21 631 632 633 0
21 -21 631 632 -633 0
21 -21 631 -632 633 0
21 -21 631 -632 -633 0
21 -21 -631 632 633 0
21 -21 -631 632 -633 0
21 -21 -631 -632 633 0
21 -21 -631 -632 -633 0
19 36 -46 634 635 0
19 36 -46 634 -635 0
19 36 -46 -634 635 0
19 36 -46 -634 -635 0
-23 -34 -44 636 637 0
-23 -34 -44 636 -637 0
-23 -34 -44 -636 637 0
-23 -34 -44 -636 -637 0
-2 21 -46 638 639 0
-2 21 -46 638 -639 0
-2 21 -46 -638 639 0
-2 21 -46 -638 -639 0
-8 17 640 641 642 0
-8 17 640 641 -642 0
-8 17 640 -641 642 0
-8 17 640 -641 -642 0
-8 17 -640 641 642 0
-8 17 -640 641 -642 0
-8 17 -640 -641 642 0
-8 17 -640 -641 -642 0
12 -34 -43 643 644 0
12 -34 -43 643 -644 0
12 -34 -43 -643 644 0
12 -34 -43 -643 -644 0
-13 16 17 645 646 0
-13 16 17 645 -646 0
-13 16 17 -645 646 0
-13 16 17 -645 -646 0
18 -21 45 647 648 0
18 -21 45 647 -648 0
18 -21 45 -647 648 0
18 -21 45 -647 -648 0
-13 16 17 649 650 0
-13 16 17 649 -650 0
-13 16 17 -649 650 0
-13 16 17 -649 -650 0
-13 -14 651 652 653 0
-13 -14 651 652 -653 0
-13 -14 651 -652 653 0
-13 -14 651 -652 -653 0
-13 -14 -651 652 653 0
-13 -14 -651 652 -653 0
-13 -14 -651 -652 653 0
-13 -14 -651 -652 -653 0
